; Benchmark for LTL-sketching problem
(set-logic QF_UF)
(set-info :status unknown)
(declare-fun z_0_0_0 () Bool)
(declare-fun z_0_1_0 () Bool)
(declare-fun z_0_2_0 () Bool)
(declare-fun z_0_3_0 () Bool)
(declare-fun z_0_4_0 () Bool)
(declare-fun z_0_5_0 () Bool)
(declare-fun z_0_6_0 () Bool)
(declare-fun z_0_7_0 () Bool)
(declare-fun z_0_8_0 () Bool)
(declare-fun z_0_9_0 () Bool)
(declare-fun z_0_10_0 () Bool)
(declare-fun z_0_11_0 () Bool)
(declare-fun z_0_12_0 () Bool)
(declare-fun z_0_13_0 () Bool)
(declare-fun z_0_14_0 () Bool)
(declare-fun z_0_15_0 () Bool)
(declare-fun z_0_16_0 () Bool)
(declare-fun z_0_17_0 () Bool)
(declare-fun z_0_18_0 () Bool)
(declare-fun z_0_19_0 () Bool)
(declare-fun z_0_20_0 () Bool)
(declare-fun z_0_21_0 () Bool)
(declare-fun z_0_22_0 () Bool)
(declare-fun z_0_23_0 () Bool)
(declare-fun z_0_24_0 () Bool)
(declare-fun z_0_25_0 () Bool)
(declare-fun z_0_26_0 () Bool)
(declare-fun z_0_27_0 () Bool)
(declare-fun z_0_28_0 () Bool)
(declare-fun z_0_29_0 () Bool)
(declare-fun z_0_30_0 () Bool)
(declare-fun z_0_31_0 () Bool)
(declare-fun z_0_32_0 () Bool)
(declare-fun z_0_33_0 () Bool)
(declare-fun z_0_34_0 () Bool)
(declare-fun z_0_35_0 () Bool)
(declare-fun z_0_36_0 () Bool)
(declare-fun z_0_37_0 () Bool)
(declare-fun z_0_38_0 () Bool)
(declare-fun z_0_39_0 () Bool)
(declare-fun z_0_40_0 () Bool)
(declare-fun z_0_41_0 () Bool)
(declare-fun z_0_42_0 () Bool)
(declare-fun z_0_43_0 () Bool)
(declare-fun z_0_44_0 () Bool)
(declare-fun z_0_45_0 () Bool)
(declare-fun z_0_46_0 () Bool)
(declare-fun z_0_47_0 () Bool)
(declare-fun z_0_48_0 () Bool)
(declare-fun z_0_49_0 () Bool)
(declare-fun z_1_0_0 () Bool)
(declare-fun z_1_1_0 () Bool)
(declare-fun z_1_2_0 () Bool)
(declare-fun z_1_3_0 () Bool)
(declare-fun z_1_4_0 () Bool)
(declare-fun z_1_5_0 () Bool)
(declare-fun z_1_6_0 () Bool)
(declare-fun z_1_7_0 () Bool)
(declare-fun z_1_8_0 () Bool)
(declare-fun z_1_9_0 () Bool)
(declare-fun z_1_10_0 () Bool)
(declare-fun z_1_11_0 () Bool)
(declare-fun z_1_12_0 () Bool)
(declare-fun z_1_13_0 () Bool)
(declare-fun z_1_14_0 () Bool)
(declare-fun z_1_15_0 () Bool)
(declare-fun z_1_16_0 () Bool)
(declare-fun z_1_17_0 () Bool)
(declare-fun z_1_18_0 () Bool)
(declare-fun z_1_19_0 () Bool)
(declare-fun z_1_20_0 () Bool)
(declare-fun z_1_21_0 () Bool)
(declare-fun z_1_22_0 () Bool)
(declare-fun z_1_23_0 () Bool)
(declare-fun z_1_24_0 () Bool)
(declare-fun z_0_25_1 () Bool)
(declare-fun z_1_25_0 () Bool)
(declare-fun z_0_25_2 () Bool)
(declare-fun z_1_25_1 () Bool)
(declare-fun z_1_25_2 () Bool)
(declare-fun z_0_26_1 () Bool)
(declare-fun z_1_26_0 () Bool)
(declare-fun z_0_26_2 () Bool)
(declare-fun z_1_26_1 () Bool)
(declare-fun z_0_26_3 () Bool)
(declare-fun z_1_26_2 () Bool)
(declare-fun z_0_26_4 () Bool)
(declare-fun z_1_26_3 () Bool)
(declare-fun z_1_26_4 () Bool)
(declare-fun z_0_27_1 () Bool)
(declare-fun z_1_27_0 () Bool)
(declare-fun z_0_27_2 () Bool)
(declare-fun z_1_27_1 () Bool)
(declare-fun z_0_27_3 () Bool)
(declare-fun z_1_27_2 () Bool)
(declare-fun z_0_27_4 () Bool)
(declare-fun z_1_27_3 () Bool)
(declare-fun z_0_27_5 () Bool)
(declare-fun z_1_27_4 () Bool)
(declare-fun z_1_27_5 () Bool)
(declare-fun z_0_28_1 () Bool)
(declare-fun z_1_28_0 () Bool)
(declare-fun z_0_28_2 () Bool)
(declare-fun z_1_28_1 () Bool)
(declare-fun z_0_28_3 () Bool)
(declare-fun z_1_28_2 () Bool)
(declare-fun z_0_28_4 () Bool)
(declare-fun z_1_28_3 () Bool)
(declare-fun z_0_28_5 () Bool)
(declare-fun z_1_28_4 () Bool)
(declare-fun z_1_28_5 () Bool)
(declare-fun z_0_29_1 () Bool)
(declare-fun z_1_29_0 () Bool)
(declare-fun z_0_29_2 () Bool)
(declare-fun z_1_29_1 () Bool)
(declare-fun z_0_29_3 () Bool)
(declare-fun z_1_29_2 () Bool)
(declare-fun z_1_29_3 () Bool)
(declare-fun z_0_30_1 () Bool)
(declare-fun z_1_30_0 () Bool)
(declare-fun z_0_30_2 () Bool)
(declare-fun z_1_30_1 () Bool)
(declare-fun z_0_30_3 () Bool)
(declare-fun z_1_30_2 () Bool)
(declare-fun z_0_30_4 () Bool)
(declare-fun z_1_30_3 () Bool)
(declare-fun z_0_30_5 () Bool)
(declare-fun z_1_30_4 () Bool)
(declare-fun z_1_30_5 () Bool)
(declare-fun z_0_31_1 () Bool)
(declare-fun z_1_31_0 () Bool)
(declare-fun z_0_31_2 () Bool)
(declare-fun z_1_31_1 () Bool)
(declare-fun z_0_31_3 () Bool)
(declare-fun z_1_31_2 () Bool)
(declare-fun z_0_31_4 () Bool)
(declare-fun z_1_31_3 () Bool)
(declare-fun z_1_31_4 () Bool)
(declare-fun z_0_32_1 () Bool)
(declare-fun z_1_32_0 () Bool)
(declare-fun z_0_32_2 () Bool)
(declare-fun z_1_32_1 () Bool)
(declare-fun z_0_32_3 () Bool)
(declare-fun z_1_32_2 () Bool)
(declare-fun z_0_32_4 () Bool)
(declare-fun z_1_32_3 () Bool)
(declare-fun z_0_32_5 () Bool)
(declare-fun z_1_32_4 () Bool)
(declare-fun z_1_32_5 () Bool)
(declare-fun z_0_33_1 () Bool)
(declare-fun z_1_33_0 () Bool)
(declare-fun z_0_33_2 () Bool)
(declare-fun z_1_33_1 () Bool)
(declare-fun z_0_33_3 () Bool)
(declare-fun z_1_33_2 () Bool)
(declare-fun z_0_33_4 () Bool)
(declare-fun z_1_33_3 () Bool)
(declare-fun z_0_33_5 () Bool)
(declare-fun z_1_33_4 () Bool)
(declare-fun z_0_33_6 () Bool)
(declare-fun z_1_33_5 () Bool)
(declare-fun z_0_33_7 () Bool)
(declare-fun z_1_33_6 () Bool)
(declare-fun z_1_33_7 () Bool)
(declare-fun z_0_34_1 () Bool)
(declare-fun z_1_34_0 () Bool)
(declare-fun z_0_34_2 () Bool)
(declare-fun z_1_34_1 () Bool)
(declare-fun z_0_34_3 () Bool)
(declare-fun z_1_34_2 () Bool)
(declare-fun z_0_34_4 () Bool)
(declare-fun z_1_34_3 () Bool)
(declare-fun z_1_34_4 () Bool)
(declare-fun z_0_35_1 () Bool)
(declare-fun z_1_35_0 () Bool)
(declare-fun z_1_35_1 () Bool)
(declare-fun z_0_36_1 () Bool)
(declare-fun z_1_36_0 () Bool)
(declare-fun z_0_36_2 () Bool)
(declare-fun z_1_36_1 () Bool)
(declare-fun z_0_36_3 () Bool)
(declare-fun z_1_36_2 () Bool)
(declare-fun z_0_36_4 () Bool)
(declare-fun z_1_36_3 () Bool)
(declare-fun z_1_36_4 () Bool)
(declare-fun z_0_37_1 () Bool)
(declare-fun z_1_37_0 () Bool)
(declare-fun z_0_37_2 () Bool)
(declare-fun z_1_37_1 () Bool)
(declare-fun z_0_37_3 () Bool)
(declare-fun z_1_37_2 () Bool)
(declare-fun z_0_37_4 () Bool)
(declare-fun z_1_37_3 () Bool)
(declare-fun z_0_37_5 () Bool)
(declare-fun z_1_37_4 () Bool)
(declare-fun z_1_37_5 () Bool)
(declare-fun z_0_38_1 () Bool)
(declare-fun z_1_38_0 () Bool)
(declare-fun z_0_38_2 () Bool)
(declare-fun z_1_38_1 () Bool)
(declare-fun z_0_38_3 () Bool)
(declare-fun z_1_38_2 () Bool)
(declare-fun z_0_38_4 () Bool)
(declare-fun z_1_38_3 () Bool)
(declare-fun z_1_38_4 () Bool)
(declare-fun z_0_39_1 () Bool)
(declare-fun z_1_39_0 () Bool)
(declare-fun z_0_39_2 () Bool)
(declare-fun z_1_39_1 () Bool)
(declare-fun z_0_39_3 () Bool)
(declare-fun z_1_39_2 () Bool)
(declare-fun z_0_39_4 () Bool)
(declare-fun z_1_39_3 () Bool)
(declare-fun z_0_39_5 () Bool)
(declare-fun z_1_39_4 () Bool)
(declare-fun z_0_39_6 () Bool)
(declare-fun z_1_39_5 () Bool)
(declare-fun z_1_39_6 () Bool)
(declare-fun z_0_40_1 () Bool)
(declare-fun z_1_40_0 () Bool)
(declare-fun z_0_40_2 () Bool)
(declare-fun z_1_40_1 () Bool)
(declare-fun z_0_40_3 () Bool)
(declare-fun z_1_40_2 () Bool)
(declare-fun z_0_40_4 () Bool)
(declare-fun z_1_40_3 () Bool)
(declare-fun z_0_40_5 () Bool)
(declare-fun z_1_40_4 () Bool)
(declare-fun z_0_40_6 () Bool)
(declare-fun z_1_40_5 () Bool)
(declare-fun z_0_40_7 () Bool)
(declare-fun z_1_40_6 () Bool)
(declare-fun z_1_40_7 () Bool)
(declare-fun z_0_41_1 () Bool)
(declare-fun z_1_41_0 () Bool)
(declare-fun z_0_41_2 () Bool)
(declare-fun z_1_41_1 () Bool)
(declare-fun z_0_41_3 () Bool)
(declare-fun z_1_41_2 () Bool)
(declare-fun z_0_41_4 () Bool)
(declare-fun z_1_41_3 () Bool)
(declare-fun z_0_41_5 () Bool)
(declare-fun z_1_41_4 () Bool)
(declare-fun z_1_41_5 () Bool)
(declare-fun z_0_42_1 () Bool)
(declare-fun z_1_42_0 () Bool)
(declare-fun z_0_42_2 () Bool)
(declare-fun z_1_42_1 () Bool)
(declare-fun z_0_42_3 () Bool)
(declare-fun z_1_42_2 () Bool)
(declare-fun z_0_42_4 () Bool)
(declare-fun z_1_42_3 () Bool)
(declare-fun z_0_42_5 () Bool)
(declare-fun z_1_42_4 () Bool)
(declare-fun z_1_42_5 () Bool)
(declare-fun z_0_43_1 () Bool)
(declare-fun z_1_43_0 () Bool)
(declare-fun z_0_43_2 () Bool)
(declare-fun z_1_43_1 () Bool)
(declare-fun z_0_43_3 () Bool)
(declare-fun z_1_43_2 () Bool)
(declare-fun z_1_43_3 () Bool)
(declare-fun z_0_44_1 () Bool)
(declare-fun z_1_44_0 () Bool)
(declare-fun z_0_44_2 () Bool)
(declare-fun z_1_44_1 () Bool)
(declare-fun z_1_44_2 () Bool)
(declare-fun z_0_45_1 () Bool)
(declare-fun z_1_45_0 () Bool)
(declare-fun z_0_45_2 () Bool)
(declare-fun z_1_45_1 () Bool)
(declare-fun z_0_45_3 () Bool)
(declare-fun z_1_45_2 () Bool)
(declare-fun z_1_45_3 () Bool)
(declare-fun z_0_46_1 () Bool)
(declare-fun z_1_46_0 () Bool)
(declare-fun z_1_46_1 () Bool)
(declare-fun z_0_47_1 () Bool)
(declare-fun z_1_47_0 () Bool)
(declare-fun z_0_47_2 () Bool)
(declare-fun z_1_47_1 () Bool)
(declare-fun z_1_47_2 () Bool)
(declare-fun z_0_48_1 () Bool)
(declare-fun z_1_48_0 () Bool)
(declare-fun z_0_48_2 () Bool)
(declare-fun z_1_48_1 () Bool)
(declare-fun z_0_48_3 () Bool)
(declare-fun z_1_48_2 () Bool)
(declare-fun z_1_48_3 () Bool)
(declare-fun z_0_49_1 () Bool)
(declare-fun z_1_49_0 () Bool)
(declare-fun z_0_49_2 () Bool)
(declare-fun z_1_49_1 () Bool)
(declare-fun z_0_49_3 () Bool)
(declare-fun z_1_49_2 () Bool)
(declare-fun z_1_49_3 () Bool)
(declare-fun z_3_0_0 () Bool)
(declare-fun z_3_1_0 () Bool)
(declare-fun z_3_2_0 () Bool)
(declare-fun z_3_3_0 () Bool)
(declare-fun z_3_4_0 () Bool)
(declare-fun z_3_5_0 () Bool)
(declare-fun z_3_6_0 () Bool)
(declare-fun z_3_7_0 () Bool)
(declare-fun z_3_8_0 () Bool)
(declare-fun z_3_9_0 () Bool)
(declare-fun z_3_10_0 () Bool)
(declare-fun z_3_11_0 () Bool)
(declare-fun z_3_12_0 () Bool)
(declare-fun z_3_13_0 () Bool)
(declare-fun z_3_14_0 () Bool)
(declare-fun z_3_15_0 () Bool)
(declare-fun z_3_16_0 () Bool)
(declare-fun z_3_17_0 () Bool)
(declare-fun z_3_18_0 () Bool)
(declare-fun z_3_19_0 () Bool)
(declare-fun z_3_20_0 () Bool)
(declare-fun z_3_21_0 () Bool)
(declare-fun z_3_22_0 () Bool)
(declare-fun z_3_23_0 () Bool)
(declare-fun z_3_24_0 () Bool)
(declare-fun z_3_25_0 () Bool)
(declare-fun z_3_25_1 () Bool)
(declare-fun z_3_25_2 () Bool)
(declare-fun z_3_26_0 () Bool)
(declare-fun z_3_26_1 () Bool)
(declare-fun z_3_26_2 () Bool)
(declare-fun z_3_26_3 () Bool)
(declare-fun z_3_26_4 () Bool)
(declare-fun z_3_27_0 () Bool)
(declare-fun z_3_27_1 () Bool)
(declare-fun z_3_27_2 () Bool)
(declare-fun z_3_27_3 () Bool)
(declare-fun z_3_27_4 () Bool)
(declare-fun z_3_27_5 () Bool)
(declare-fun z_3_28_0 () Bool)
(declare-fun z_3_28_1 () Bool)
(declare-fun z_3_28_2 () Bool)
(declare-fun z_3_28_3 () Bool)
(declare-fun z_3_28_4 () Bool)
(declare-fun z_3_28_5 () Bool)
(declare-fun z_3_29_0 () Bool)
(declare-fun z_3_29_1 () Bool)
(declare-fun z_3_29_2 () Bool)
(declare-fun z_3_29_3 () Bool)
(declare-fun z_3_30_0 () Bool)
(declare-fun z_3_30_1 () Bool)
(declare-fun z_3_30_2 () Bool)
(declare-fun z_3_30_3 () Bool)
(declare-fun z_3_30_4 () Bool)
(declare-fun z_3_30_5 () Bool)
(declare-fun z_3_31_0 () Bool)
(declare-fun z_3_31_1 () Bool)
(declare-fun z_3_31_2 () Bool)
(declare-fun z_3_31_3 () Bool)
(declare-fun z_3_31_4 () Bool)
(declare-fun z_3_32_0 () Bool)
(declare-fun z_3_32_1 () Bool)
(declare-fun z_3_32_2 () Bool)
(declare-fun z_3_32_3 () Bool)
(declare-fun z_3_32_4 () Bool)
(declare-fun z_3_32_5 () Bool)
(declare-fun z_3_33_0 () Bool)
(declare-fun z_3_33_1 () Bool)
(declare-fun z_3_33_2 () Bool)
(declare-fun z_3_33_3 () Bool)
(declare-fun z_3_33_4 () Bool)
(declare-fun z_3_33_5 () Bool)
(declare-fun z_3_33_6 () Bool)
(declare-fun z_3_33_7 () Bool)
(declare-fun z_3_34_0 () Bool)
(declare-fun z_3_34_1 () Bool)
(declare-fun z_3_34_2 () Bool)
(declare-fun z_3_34_3 () Bool)
(declare-fun z_3_34_4 () Bool)
(declare-fun z_3_35_0 () Bool)
(declare-fun z_3_35_1 () Bool)
(declare-fun z_3_36_0 () Bool)
(declare-fun z_3_36_1 () Bool)
(declare-fun z_3_36_2 () Bool)
(declare-fun z_3_36_3 () Bool)
(declare-fun z_3_36_4 () Bool)
(declare-fun z_3_37_0 () Bool)
(declare-fun z_3_37_1 () Bool)
(declare-fun z_3_37_2 () Bool)
(declare-fun z_3_37_3 () Bool)
(declare-fun z_3_37_4 () Bool)
(declare-fun z_3_37_5 () Bool)
(declare-fun z_3_38_0 () Bool)
(declare-fun z_3_38_1 () Bool)
(declare-fun z_3_38_2 () Bool)
(declare-fun z_3_38_3 () Bool)
(declare-fun z_3_38_4 () Bool)
(declare-fun z_3_39_0 () Bool)
(declare-fun z_3_39_1 () Bool)
(declare-fun z_3_39_2 () Bool)
(declare-fun z_3_39_3 () Bool)
(declare-fun z_3_39_4 () Bool)
(declare-fun z_3_39_5 () Bool)
(declare-fun z_3_39_6 () Bool)
(declare-fun z_3_40_0 () Bool)
(declare-fun z_3_40_1 () Bool)
(declare-fun z_3_40_2 () Bool)
(declare-fun z_3_40_3 () Bool)
(declare-fun z_3_40_4 () Bool)
(declare-fun z_3_40_5 () Bool)
(declare-fun z_3_40_6 () Bool)
(declare-fun z_3_40_7 () Bool)
(declare-fun z_3_41_0 () Bool)
(declare-fun z_3_41_1 () Bool)
(declare-fun z_3_41_2 () Bool)
(declare-fun z_3_41_3 () Bool)
(declare-fun z_3_41_4 () Bool)
(declare-fun z_3_41_5 () Bool)
(declare-fun z_3_42_0 () Bool)
(declare-fun z_3_42_1 () Bool)
(declare-fun z_3_42_2 () Bool)
(declare-fun z_3_42_3 () Bool)
(declare-fun z_3_42_4 () Bool)
(declare-fun z_3_42_5 () Bool)
(declare-fun z_3_43_0 () Bool)
(declare-fun z_3_43_1 () Bool)
(declare-fun z_3_43_2 () Bool)
(declare-fun z_3_43_3 () Bool)
(declare-fun z_3_44_0 () Bool)
(declare-fun z_3_44_1 () Bool)
(declare-fun z_3_44_2 () Bool)
(declare-fun z_3_45_0 () Bool)
(declare-fun z_3_45_1 () Bool)
(declare-fun z_3_45_2 () Bool)
(declare-fun z_3_45_3 () Bool)
(declare-fun z_3_46_0 () Bool)
(declare-fun z_3_46_1 () Bool)
(declare-fun z_3_47_0 () Bool)
(declare-fun z_3_47_1 () Bool)
(declare-fun z_3_47_2 () Bool)
(declare-fun z_3_48_0 () Bool)
(declare-fun z_3_48_1 () Bool)
(declare-fun z_3_48_2 () Bool)
(declare-fun z_3_48_3 () Bool)
(declare-fun z_3_49_0 () Bool)
(declare-fun z_3_49_1 () Bool)
(declare-fun z_3_49_2 () Bool)
(declare-fun z_3_49_3 () Bool)
(declare-fun x_3_p () Bool)
(declare-fun x_3_-> () Bool)
(declare-fun x_3_U () Bool)
(declare-fun x_3_v () Bool)
(declare-fun x_3_& () Bool)
(declare-fun x_3_X () Bool)
(declare-fun x_3_! () Bool)
(declare-fun x_3_F () Bool)
(declare-fun x_3_G () Bool)
(assert
 (= z_0_0_0 true))
(assert
 (= z_0_1_0 true))
(assert
 (= z_0_2_0 true))
(assert
 (= z_0_3_0 true))
(assert
 (= z_0_4_0 true))
(assert
 (= z_0_5_0 true))
(assert
 (= z_0_6_0 true))
(assert
 (= z_0_7_0 true))
(assert
 (= z_0_8_0 true))
(assert
 (= z_0_9_0 true))
(assert
 (= z_0_10_0 true))
(assert
 (= z_0_11_0 true))
(assert
 (= z_0_12_0 true))
(assert
 (= z_0_13_0 true))
(assert
 (= z_0_14_0 true))
(assert
 (= z_0_15_0 true))
(assert
 (= z_0_16_0 true))
(assert
 (= z_0_17_0 true))
(assert
 (= z_0_18_0 true))
(assert
 (= z_0_19_0 true))
(assert
 (= z_0_20_0 true))
(assert
 (= z_0_21_0 true))
(assert
 (= z_0_22_0 true))
(assert
 (= z_0_23_0 true))
(assert
 (= z_0_24_0 true))
(assert
 (= z_0_25_0 false))
(assert
 (= z_0_26_0 false))
(assert
 (= z_0_27_0 false))
(assert
 (= z_0_28_0 false))
(assert
 (= z_0_29_0 false))
(assert
 (= z_0_30_0 false))
(assert
 (= z_0_31_0 false))
(assert
 (= z_0_32_0 false))
(assert
 (= z_0_33_0 false))
(assert
 (= z_0_34_0 false))
(assert
 (= z_0_35_0 false))
(assert
 (= z_0_36_0 false))
(assert
 (= z_0_37_0 false))
(assert
 (= z_0_38_0 false))
(assert
 (= z_0_39_0 false))
(assert
 (= z_0_40_0 false))
(assert
 (= z_0_41_0 false))
(assert
 (= z_0_42_0 false))
(assert
 (= z_0_43_0 false))
(assert
 (= z_0_44_0 false))
(assert
 (= z_0_45_0 false))
(assert
 (= z_0_46_0 false))
(assert
 (= z_0_47_0 false))
(assert
 (= z_0_48_0 false))
(assert
 (= z_0_49_0 false))
(assert
 (= z_0_0_0 (and z_1_0_0)))
(assert
 (= z_0_1_0 (and z_1_1_0)))
(assert
 (= z_0_2_0 (and z_1_2_0)))
(assert
 (= z_0_3_0 (and z_1_3_0)))
(assert
 (= z_0_4_0 (and z_1_4_0)))
(assert
 (= z_0_5_0 (and z_1_5_0)))
(assert
 (= z_0_6_0 (and z_1_6_0)))
(assert
 (= z_0_7_0 (and z_1_7_0)))
(assert
 (= z_0_8_0 (and z_1_8_0)))
(assert
 (= z_0_9_0 (and z_1_9_0)))
(assert
 (= z_0_10_0 (and z_1_10_0)))
(assert
 (= z_0_11_0 (and z_1_11_0)))
(assert
 (= z_0_12_0 (and z_1_12_0)))
(assert
 (= z_0_13_0 (and z_1_13_0)))
(assert
 (= z_0_14_0 (and z_1_14_0)))
(assert
 (= z_0_15_0 (and z_1_15_0)))
(assert
 (= z_0_16_0 (and z_1_16_0)))
(assert
 (= z_0_17_0 (and z_1_17_0)))
(assert
 (= z_0_18_0 (and z_1_18_0)))
(assert
 (= z_0_19_0 (and z_1_19_0)))
(assert
 (= z_0_20_0 (and z_1_20_0)))
(assert
 (= z_0_21_0 (and z_1_21_0)))
(assert
 (= z_0_22_0 (and z_1_22_0)))
(assert
 (= z_0_23_0 (and z_1_23_0)))
(assert
 (= z_0_24_0 (and z_1_24_0)))
(assert
 (= z_0_25_0 (and z_1_25_0 z_0_25_1)))
(assert
 (= z_0_25_1 (and z_1_25_1 z_0_25_2)))
(assert
 (= z_0_25_2 (and z_1_25_1 z_1_25_2)))
(assert
 (= z_0_26_0 (and z_1_26_0 z_0_26_1)))
(assert
 (= z_0_26_1 (and z_1_26_1 z_0_26_2)))
(assert
 (= z_0_26_2 (and z_1_26_2 z_0_26_3)))
(assert
 (= z_0_26_3 (and z_1_26_3 z_0_26_4)))
(assert
 (= z_0_26_4 (and z_1_26_3 z_1_26_4)))
(assert
 (= z_0_27_0 (and z_1_27_0 z_0_27_1)))
(assert
 (= z_0_27_1 (and z_1_27_1 z_0_27_2)))
(assert
 (= z_0_27_2 (and z_1_27_2 z_0_27_3)))
(assert
 (= z_0_27_3 (and z_1_27_3 z_0_27_4)))
(assert
 (= z_0_27_4 (and z_1_27_4 z_0_27_5)))
(assert
 (= z_0_27_5 (and z_1_27_2 z_1_27_3 z_1_27_4 z_1_27_5)))
(assert
 (= z_0_28_0 (and z_1_28_0 z_0_28_1)))
(assert
 (= z_0_28_1 (and z_1_28_1 z_0_28_2)))
(assert
 (= z_0_28_2 (and z_1_28_2 z_0_28_3)))
(assert
 (= z_0_28_3 (and z_1_28_3 z_0_28_4)))
(assert
 (= z_0_28_4 (and z_1_28_4 z_0_28_5)))
(assert
 (= z_0_28_5 (and z_1_28_2 z_1_28_3 z_1_28_4 z_1_28_5)))
(assert
 (= z_0_29_0 (and z_1_29_0 z_0_29_1)))
(assert
 (= z_0_29_1 (and z_1_29_1 z_0_29_2)))
(assert
 (= z_0_29_2 (and z_1_29_2 z_0_29_3)))
(assert
 (= z_0_29_3 (and z_1_29_3)))
(assert
 (= z_0_30_0 (and z_1_30_0 z_0_30_1)))
(assert
 (= z_0_30_1 (and z_1_30_1 z_0_30_2)))
(assert
 (= z_0_30_2 (and z_1_30_2 z_0_30_3)))
(assert
 (= z_0_30_3 (and z_1_30_3 z_0_30_4)))
(assert
 (= z_0_30_4 (and z_1_30_4 z_0_30_5)))
(assert
 (= z_0_30_5 (and z_1_30_3 z_1_30_4 z_1_30_5)))
(assert
 (= z_0_31_0 (and z_1_31_0 z_0_31_1)))
(assert
 (= z_0_31_1 (and z_1_31_1 z_0_31_2)))
(assert
 (= z_0_31_2 (and z_1_31_2 z_0_31_3)))
(assert
 (= z_0_31_3 (and z_1_31_3 z_0_31_4)))
(assert
 (= z_0_31_4 (and z_1_31_4)))
(assert
 (= z_0_32_0 (and z_1_32_0 z_0_32_1)))
(assert
 (= z_0_32_1 (and z_1_32_1 z_0_32_2)))
(assert
 (= z_0_32_2 (and z_1_32_2 z_0_32_3)))
(assert
 (= z_0_32_3 (and z_1_32_3 z_0_32_4)))
(assert
 (= z_0_32_4 (and z_1_32_4 z_0_32_5)))
(assert
 (= z_0_32_5 (and z_1_32_3 z_1_32_4 z_1_32_5)))
(assert
 (= z_0_33_0 (and z_1_33_0 z_0_33_1)))
(assert
 (= z_0_33_1 (and z_1_33_1 z_0_33_2)))
(assert
 (= z_0_33_2 (and z_1_33_2 z_0_33_3)))
(assert
 (= z_0_33_3 (and z_1_33_3 z_0_33_4)))
(assert
 (= z_0_33_4 (and z_1_33_4 z_0_33_5)))
(assert
 (= z_0_33_5 (and z_1_33_5 z_0_33_6)))
(assert
 (= z_0_33_6 (and z_1_33_6 z_0_33_7)))
(assert
 (= z_0_33_7 (and z_1_33_4 z_1_33_5 z_1_33_6 z_1_33_7)))
(assert
 (= z_0_34_0 (and z_1_34_0 z_0_34_1)))
(assert
 (= z_0_34_1 (and z_1_34_1 z_0_34_2)))
(assert
 (= z_0_34_2 (and z_1_34_2 z_0_34_3)))
(assert
 (= z_0_34_3 (and z_1_34_3 z_0_34_4)))
(assert
 (= z_0_34_4 (and z_1_34_3 z_1_34_4)))
(assert
 (= z_0_35_0 (and z_1_35_0 z_0_35_1)))
(assert
 (= z_0_35_1 (and z_1_35_0 z_1_35_1)))
(assert
 (= z_0_36_0 (and z_1_36_0 z_0_36_1)))
(assert
 (= z_0_36_1 (and z_1_36_1 z_0_36_2)))
(assert
 (= z_0_36_2 (and z_1_36_2 z_0_36_3)))
(assert
 (= z_0_36_3 (and z_1_36_3 z_0_36_4)))
(assert
 (= z_0_36_4 (and z_1_36_2 z_1_36_3 z_1_36_4)))
(assert
 (= z_0_37_0 (and z_1_37_0 z_0_37_1)))
(assert
 (= z_0_37_1 (and z_1_37_1 z_0_37_2)))
(assert
 (= z_0_37_2 (and z_1_37_2 z_0_37_3)))
(assert
 (= z_0_37_3 (and z_1_37_3 z_0_37_4)))
(assert
 (= z_0_37_4 (and z_1_37_4 z_0_37_5)))
(assert
 (= z_0_37_5 (and z_1_37_3 z_1_37_4 z_1_37_5)))
(assert
 (= z_0_38_0 (and z_1_38_0 z_0_38_1)))
(assert
 (= z_0_38_1 (and z_1_38_1 z_0_38_2)))
(assert
 (= z_0_38_2 (and z_1_38_2 z_0_38_3)))
(assert
 (= z_0_38_3 (and z_1_38_3 z_0_38_4)))
(assert
 (= z_0_38_4 (and z_1_38_3 z_1_38_4)))
(assert
 (= z_0_39_0 (and z_1_39_0 z_0_39_1)))
(assert
 (= z_0_39_1 (and z_1_39_1 z_0_39_2)))
(assert
 (= z_0_39_2 (and z_1_39_2 z_0_39_3)))
(assert
 (= z_0_39_3 (and z_1_39_3 z_0_39_4)))
(assert
 (= z_0_39_4 (and z_1_39_4 z_0_39_5)))
(assert
 (= z_0_39_5 (and z_1_39_5 z_0_39_6)))
(assert
 (= z_0_39_6 (and z_1_39_4 z_1_39_5 z_1_39_6)))
(assert
 (= z_0_40_0 (and z_1_40_0 z_0_40_1)))
(assert
 (= z_0_40_1 (and z_1_40_1 z_0_40_2)))
(assert
 (= z_0_40_2 (and z_1_40_2 z_0_40_3)))
(assert
 (= z_0_40_3 (and z_1_40_3 z_0_40_4)))
(assert
 (= z_0_40_4 (and z_1_40_4 z_0_40_5)))
(assert
 (= z_0_40_5 (and z_1_40_5 z_0_40_6)))
(assert
 (= z_0_40_6 (and z_1_40_6 z_0_40_7)))
(assert
 (= z_0_40_7 (and z_1_40_4 z_1_40_5 z_1_40_6 z_1_40_7)))
(assert
 (= z_0_41_0 (and z_1_41_0 z_0_41_1)))
(assert
 (= z_0_41_1 (and z_1_41_1 z_0_41_2)))
(assert
 (= z_0_41_2 (and z_1_41_2 z_0_41_3)))
(assert
 (= z_0_41_3 (and z_1_41_3 z_0_41_4)))
(assert
 (= z_0_41_4 (and z_1_41_4 z_0_41_5)))
(assert
 (= z_0_41_5 (and z_1_41_2 z_1_41_3 z_1_41_4 z_1_41_5)))
(assert
 (= z_0_42_0 (and z_1_42_0 z_0_42_1)))
(assert
 (= z_0_42_1 (and z_1_42_1 z_0_42_2)))
(assert
 (= z_0_42_2 (and z_1_42_2 z_0_42_3)))
(assert
 (= z_0_42_3 (and z_1_42_3 z_0_42_4)))
(assert
 (= z_0_42_4 (and z_1_42_4 z_0_42_5)))
(assert
 (= z_0_42_5 (and z_1_42_3 z_1_42_4 z_1_42_5)))
(assert
 (= z_0_43_0 (and z_1_43_0 z_0_43_1)))
(assert
 (= z_0_43_1 (and z_1_43_1 z_0_43_2)))
(assert
 (= z_0_43_2 (and z_1_43_2 z_0_43_3)))
(assert
 (= z_0_43_3 (and z_1_43_0 z_1_43_1 z_1_43_2 z_1_43_3)))
(assert
 (= z_0_44_0 (and z_1_44_0 z_0_44_1)))
(assert
 (= z_0_44_1 (and z_1_44_1 z_0_44_2)))
(assert
 (= z_0_44_2 (and z_1_44_2)))
(assert
 (= z_0_45_0 (and z_1_45_0 z_0_45_1)))
(assert
 (= z_0_45_1 (and z_1_45_1 z_0_45_2)))
(assert
 (= z_0_45_2 (and z_1_45_2 z_0_45_3)))
(assert
 (= z_0_45_3 (and z_1_45_3)))
(assert
 (= z_0_46_0 (and z_1_46_0 z_0_46_1)))
(assert
 (= z_0_46_1 (and z_1_46_1)))
(assert
 (= z_0_47_0 (and z_1_47_0 z_0_47_1)))
(assert
 (= z_0_47_1 (and z_1_47_1 z_0_47_2)))
(assert
 (= z_0_47_2 (and z_1_47_2)))
(assert
 (= z_0_48_0 (and z_1_48_0 z_0_48_1)))
(assert
 (= z_0_48_1 (and z_1_48_1 z_0_48_2)))
(assert
 (= z_0_48_2 (and z_1_48_2 z_0_48_3)))
(assert
 (= z_0_48_3 (and z_1_48_3)))
(assert
 (= z_0_49_0 (and z_1_49_0 z_0_49_1)))
(assert
 (= z_0_49_1 (and z_1_49_1 z_0_49_2)))
(assert
 (= z_0_49_2 (and z_1_49_2 z_0_49_3)))
(assert
 (= z_0_49_3 (and z_1_49_0 z_1_49_1 z_1_49_2 z_1_49_3)))
(assert
 (let (($x6382 (not z_3_0_0)))
 (= z_1_0_0 $x6382)))
(assert
 (let (($x6387 (not z_3_1_0)))
 (= z_1_1_0 $x6387)))
(assert
 (let (($x6392 (not z_3_2_0)))
 (= z_1_2_0 $x6392)))
(assert
 (let (($x6397 (not z_3_3_0)))
 (= z_1_3_0 $x6397)))
(assert
 (let (($x6402 (not z_3_4_0)))
 (= z_1_4_0 $x6402)))
(assert
 (let (($x6407 (not z_3_5_0)))
 (= z_1_5_0 $x6407)))
(assert
 (let (($x6412 (not z_3_6_0)))
 (= z_1_6_0 $x6412)))
(assert
 (let (($x6417 (not z_3_7_0)))
 (= z_1_7_0 $x6417)))
(assert
 (let (($x6422 (not z_3_8_0)))
 (= z_1_8_0 $x6422)))
(assert
 (let (($x6427 (not z_3_9_0)))
 (= z_1_9_0 $x6427)))
(assert
 (let (($x6432 (not z_3_10_0)))
 (= z_1_10_0 $x6432)))
(assert
 (let (($x6437 (not z_3_11_0)))
 (= z_1_11_0 $x6437)))
(assert
 (let (($x6442 (not z_3_12_0)))
 (= z_1_12_0 $x6442)))
(assert
 (let (($x6447 (not z_3_13_0)))
 (= z_1_13_0 $x6447)))
(assert
 (let (($x6452 (not z_3_14_0)))
 (= z_1_14_0 $x6452)))
(assert
 (let (($x6457 (not z_3_15_0)))
 (= z_1_15_0 $x6457)))
(assert
 (let (($x6462 (not z_3_16_0)))
 (= z_1_16_0 $x6462)))
(assert
 (let (($x6467 (not z_3_17_0)))
 (= z_1_17_0 $x6467)))
(assert
 (let (($x6472 (not z_3_18_0)))
 (= z_1_18_0 $x6472)))
(assert
 (let (($x6477 (not z_3_19_0)))
 (= z_1_19_0 $x6477)))
(assert
 (let (($x6482 (not z_3_20_0)))
 (= z_1_20_0 $x6482)))
(assert
 (let (($x6487 (not z_3_21_0)))
 (= z_1_21_0 $x6487)))
(assert
 (let (($x6492 (not z_3_22_0)))
 (= z_1_22_0 $x6492)))
(assert
 (let (($x6497 (not z_3_23_0)))
 (= z_1_23_0 $x6497)))
(assert
 (let (($x6502 (not z_3_24_0)))
 (= z_1_24_0 $x6502)))
(assert
 (= z_1_25_0 (not z_3_25_0)))
(assert
 (= z_1_25_1 (not z_3_25_1)))
(assert
 (let (($x6517 (not z_3_25_2)))
 (= z_1_25_2 $x6517)))
(assert
 (let (($x6522 (not z_3_26_0)))
 (= z_1_26_0 $x6522)))
(assert
 (= z_1_26_1 (not z_3_26_1)))
(assert
 (= z_1_26_2 (not z_3_26_2)))
(assert
 (= z_1_26_3 (not z_3_26_3)))
(assert
 (let (($x6542 (not z_3_26_4)))
 (= z_1_26_4 $x6542)))
(assert
 (let (($x6547 (not z_3_27_0)))
 (= z_1_27_0 $x6547)))
(assert
 (let (($x6552 (not z_3_27_1)))
 (= z_1_27_1 $x6552)))
(assert
 (= z_1_27_2 (not z_3_27_2)))
(assert
 (let (($x6562 (not z_3_27_3)))
 (= z_1_27_3 $x6562)))
(assert
 (let (($x6567 (not z_3_27_4)))
 (= z_1_27_4 $x6567)))
(assert
 (= z_1_27_5 (not z_3_27_5)))
(assert
 (= z_1_28_0 (not z_3_28_0)))
(assert
 (let (($x6582 (not z_3_28_1)))
 (= z_1_28_1 $x6582)))
(assert
 (let (($x6587 (not z_3_28_2)))
 (= z_1_28_2 $x6587)))
(assert
 (let (($x6592 (not z_3_28_3)))
 (= z_1_28_3 $x6592)))
(assert
 (let (($x6597 (not z_3_28_4)))
 (= z_1_28_4 $x6597)))
(assert
 (= z_1_28_5 (not z_3_28_5)))
(assert
 (let (($x6607 (not z_3_29_0)))
 (= z_1_29_0 $x6607)))
(assert
 (let (($x6612 (not z_3_29_1)))
 (= z_1_29_1 $x6612)))
(assert
 (= z_1_29_2 (not z_3_29_2)))
(assert
 (let (($x6622 (not z_3_29_3)))
 (= z_1_29_3 $x6622)))
(assert
 (= z_1_30_0 (not z_3_30_0)))
(assert
 (let (($x6632 (not z_3_30_1)))
 (= z_1_30_1 $x6632)))
(assert
 (let (($x6637 (not z_3_30_2)))
 (= z_1_30_2 $x6637)))
(assert
 (= z_1_30_3 (not z_3_30_3)))
(assert
 (let (($x6647 (not z_3_30_4)))
 (= z_1_30_4 $x6647)))
(assert
 (= z_1_30_5 (not z_3_30_5)))
(assert
 (= z_1_31_0 (not z_3_31_0)))
(assert
 (= z_1_31_1 (not z_3_31_1)))
(assert
 (let (($x6667 (not z_3_31_2)))
 (= z_1_31_2 $x6667)))
(assert
 (= z_1_31_3 (not z_3_31_3)))
(assert
 (let (($x6677 (not z_3_31_4)))
 (= z_1_31_4 $x6677)))
(assert
 (let (($x6682 (not z_3_32_0)))
 (= z_1_32_0 $x6682)))
(assert
 (= z_1_32_1 (not z_3_32_1)))
(assert
 (let (($x6692 (not z_3_32_2)))
 (= z_1_32_2 $x6692)))
(assert
 (= z_1_32_3 (not z_3_32_3)))
(assert
 (let (($x6702 (not z_3_32_4)))
 (= z_1_32_4 $x6702)))
(assert
 (= z_1_32_5 (not z_3_32_5)))
(assert
 (let (($x6712 (not z_3_33_0)))
 (= z_1_33_0 $x6712)))
(assert
 (let (($x6717 (not z_3_33_1)))
 (= z_1_33_1 $x6717)))
(assert
 (let (($x6722 (not z_3_33_2)))
 (= z_1_33_2 $x6722)))
(assert
 (= z_1_33_3 (not z_3_33_3)))
(assert
 (let (($x6732 (not z_3_33_4)))
 (= z_1_33_4 $x6732)))
(assert
 (let (($x6737 (not z_3_33_5)))
 (= z_1_33_5 $x6737)))
(assert
 (= z_1_33_6 (not z_3_33_6)))
(assert
 (let (($x6747 (not z_3_33_7)))
 (= z_1_33_7 $x6747)))
(assert
 (= z_1_34_0 (not z_3_34_0)))
(assert
 (= z_1_34_1 (not z_3_34_1)))
(assert
 (let (($x6762 (not z_3_34_2)))
 (= z_1_34_2 $x6762)))
(assert
 (let (($x6767 (not z_3_34_3)))
 (= z_1_34_3 $x6767)))
(assert
 (= z_1_34_4 (not z_3_34_4)))
(assert
 (let (($x6777 (not z_3_35_0)))
 (= z_1_35_0 $x6777)))
(assert
 (= z_1_35_1 (not z_3_35_1)))
(assert
 (let (($x6787 (not z_3_36_0)))
 (= z_1_36_0 $x6787)))
(assert
 (= z_1_36_1 (not z_3_36_1)))
(assert
 (= z_1_36_2 (not z_3_36_2)))
(assert
 (= z_1_36_3 (not z_3_36_3)))
(assert
 (let (($x6807 (not z_3_36_4)))
 (= z_1_36_4 $x6807)))
(assert
 (= z_1_37_0 (not z_3_37_0)))
(assert
 (let (($x6817 (not z_3_37_1)))
 (= z_1_37_1 $x6817)))
(assert
 (let (($x6822 (not z_3_37_2)))
 (= z_1_37_2 $x6822)))
(assert
 (= z_1_37_3 (not z_3_37_3)))
(assert
 (let (($x6832 (not z_3_37_4)))
 (= z_1_37_4 $x6832)))
(assert
 (= z_1_37_5 (not z_3_37_5)))
(assert
 (= z_1_38_0 (not z_3_38_0)))
(assert
 (= z_1_38_1 (not z_3_38_1)))
(assert
 (= z_1_38_2 (not z_3_38_2)))
(assert
 (= z_1_38_3 (not z_3_38_3)))
(assert
 (let (($x6862 (not z_3_38_4)))
 (= z_1_38_4 $x6862)))
(assert
 (let (($x6867 (not z_3_39_0)))
 (= z_1_39_0 $x6867)))
(assert
 (let (($x6872 (not z_3_39_1)))
 (= z_1_39_1 $x6872)))
(assert
 (let (($x6877 (not z_3_39_2)))
 (= z_1_39_2 $x6877)))
(assert
 (= z_1_39_3 (not z_3_39_3)))
(assert
 (= z_1_39_4 (not z_3_39_4)))
(assert
 (let (($x6892 (not z_3_39_5)))
 (= z_1_39_5 $x6892)))
(assert
 (let (($x6897 (not z_3_39_6)))
 (= z_1_39_6 $x6897)))
(assert
 (let (($x6902 (not z_3_40_0)))
 (= z_1_40_0 $x6902)))
(assert
 (let (($x6907 (not z_3_40_1)))
 (= z_1_40_1 $x6907)))
(assert
 (let (($x6912 (not z_3_40_2)))
 (= z_1_40_2 $x6912)))
(assert
 (= z_1_40_3 (not z_3_40_3)))
(assert
 (= z_1_40_4 (not z_3_40_4)))
(assert
 (= z_1_40_5 (not z_3_40_5)))
(assert
 (let (($x6932 (not z_3_40_6)))
 (= z_1_40_6 $x6932)))
(assert
 (let (($x6937 (not z_3_40_7)))
 (= z_1_40_7 $x6937)))
(assert
 (= z_1_41_0 (not z_3_41_0)))
(assert
 (let (($x6947 (not z_3_41_1)))
 (= z_1_41_1 $x6947)))
(assert
 (let (($x6952 (not z_3_41_2)))
 (= z_1_41_2 $x6952)))
(assert
 (let (($x6957 (not z_3_41_3)))
 (= z_1_41_3 $x6957)))
(assert
 (= z_1_41_4 (not z_3_41_4)))
(assert
 (= z_1_41_5 (not z_3_41_5)))
(assert
 (= z_1_42_0 (not z_3_42_0)))
(assert
 (let (($x6977 (not z_3_42_1)))
 (= z_1_42_1 $x6977)))
(assert
 (let (($x6982 (not z_3_42_2)))
 (= z_1_42_2 $x6982)))
(assert
 (let (($x6987 (not z_3_42_3)))
 (= z_1_42_3 $x6987)))
(assert
 (= z_1_42_4 (not z_3_42_4)))
(assert
 (= z_1_42_5 (not z_3_42_5)))
(assert
 (= z_1_43_0 (not z_3_43_0)))
(assert
 (= z_1_43_1 (not z_3_43_1)))
(assert
 (let (($x7012 (not z_3_43_2)))
 (= z_1_43_2 $x7012)))
(assert
 (let (($x7017 (not z_3_43_3)))
 (= z_1_43_3 $x7017)))
(assert
 (let (($x7022 (not z_3_44_0)))
 (= z_1_44_0 $x7022)))
(assert
 (= z_1_44_1 (not z_3_44_1)))
(assert
 (let (($x7032 (not z_3_44_2)))
 (= z_1_44_2 $x7032)))
(assert
 (= z_1_45_0 (not z_3_45_0)))
(assert
 (let (($x7042 (not z_3_45_1)))
 (= z_1_45_1 $x7042)))
(assert
 (let (($x7047 (not z_3_45_2)))
 (= z_1_45_2 $x7047)))
(assert
 (= z_1_45_3 (not z_3_45_3)))
(assert
 (let (($x7057 (not z_3_46_0)))
 (= z_1_46_0 $x7057)))
(assert
 (= z_1_46_1 (not z_3_46_1)))
(assert
 (let (($x7067 (not z_3_47_0)))
 (= z_1_47_0 $x7067)))
(assert
 (= z_1_47_1 (not z_3_47_1)))
(assert
 (let (($x7077 (not z_3_47_2)))
 (= z_1_47_2 $x7077)))
(assert
 (= z_1_48_0 (not z_3_48_0)))
(assert
 (let (($x7087 (not z_3_48_1)))
 (= z_1_48_1 $x7087)))
(assert
 (let (($x7092 (not z_3_48_2)))
 (= z_1_48_2 $x7092)))
(assert
 (= z_1_48_3 (not z_3_48_3)))
(assert
 (= z_1_49_0 (not z_3_49_0)))
(assert
 (= z_1_49_1 (not z_3_49_1)))
(assert
 (= z_1_49_2 (not z_3_49_2)))
(assert
 (let (($x7117 (not z_3_49_3)))
 (= z_1_49_3 $x7117)))
(assert
 (and true true))
(assert
 (let (($x6382 (not z_3_0_0)))
 (=> x_3_p $x6382)))
(assert
 (let (($x6387 (not z_3_1_0)))
 (=> x_3_p $x6387)))
(assert
 (let (($x6392 (not z_3_2_0)))
 (=> x_3_p $x6392)))
(assert
 (let (($x6397 (not z_3_3_0)))
 (=> x_3_p $x6397)))
(assert
 (let (($x6402 (not z_3_4_0)))
 (=> x_3_p $x6402)))
(assert
 (let (($x6407 (not z_3_5_0)))
 (=> x_3_p $x6407)))
(assert
 (let (($x6412 (not z_3_6_0)))
 (=> x_3_p $x6412)))
(assert
 (let (($x6417 (not z_3_7_0)))
 (=> x_3_p $x6417)))
(assert
 (let (($x6422 (not z_3_8_0)))
 (=> x_3_p $x6422)))
(assert
 (let (($x6427 (not z_3_9_0)))
 (=> x_3_p $x6427)))
(assert
 (let (($x6432 (not z_3_10_0)))
 (=> x_3_p $x6432)))
(assert
 (let (($x6437 (not z_3_11_0)))
 (=> x_3_p $x6437)))
(assert
 (let (($x6442 (not z_3_12_0)))
 (=> x_3_p $x6442)))
(assert
 (let (($x6447 (not z_3_13_0)))
 (=> x_3_p $x6447)))
(assert
 (let (($x6452 (not z_3_14_0)))
 (=> x_3_p $x6452)))
(assert
 (let (($x6457 (not z_3_15_0)))
 (=> x_3_p $x6457)))
(assert
 (let (($x6462 (not z_3_16_0)))
 (=> x_3_p $x6462)))
(assert
 (let (($x6467 (not z_3_17_0)))
 (=> x_3_p $x6467)))
(assert
 (let (($x6472 (not z_3_18_0)))
 (=> x_3_p $x6472)))
(assert
 (let (($x6477 (not z_3_19_0)))
 (=> x_3_p $x6477)))
(assert
 (let (($x6482 (not z_3_20_0)))
 (=> x_3_p $x6482)))
(assert
 (let (($x6487 (not z_3_21_0)))
 (=> x_3_p $x6487)))
(assert
 (let (($x6492 (not z_3_22_0)))
 (=> x_3_p $x6492)))
(assert
 (let (($x6497 (not z_3_23_0)))
 (=> x_3_p $x6497)))
(assert
 (let (($x6502 (not z_3_24_0)))
 (=> x_3_p $x6502)))
(assert
 (=> x_3_p z_3_25_0))
(assert
 (=> x_3_p z_3_25_1))
(assert
 (let (($x6517 (not z_3_25_2)))
 (=> x_3_p $x6517)))
(assert
 (let (($x6522 (not z_3_26_0)))
 (=> x_3_p $x6522)))
(assert
 (=> x_3_p z_3_26_1))
(assert
 (=> x_3_p z_3_26_2))
(assert
 (=> x_3_p z_3_26_3))
(assert
 (let (($x6542 (not z_3_26_4)))
 (=> x_3_p $x6542)))
(assert
 (let (($x6547 (not z_3_27_0)))
 (=> x_3_p $x6547)))
(assert
 (let (($x6552 (not z_3_27_1)))
 (=> x_3_p $x6552)))
(assert
 (=> x_3_p z_3_27_2))
(assert
 (let (($x6562 (not z_3_27_3)))
 (=> x_3_p $x6562)))
(assert
 (let (($x6567 (not z_3_27_4)))
 (=> x_3_p $x6567)))
(assert
 (=> x_3_p z_3_27_5))
(assert
 (=> x_3_p z_3_28_0))
(assert
 (let (($x6582 (not z_3_28_1)))
 (=> x_3_p $x6582)))
(assert
 (let (($x6587 (not z_3_28_2)))
 (=> x_3_p $x6587)))
(assert
 (let (($x6592 (not z_3_28_3)))
 (=> x_3_p $x6592)))
(assert
 (let (($x6597 (not z_3_28_4)))
 (=> x_3_p $x6597)))
(assert
 (=> x_3_p z_3_28_5))
(assert
 (let (($x6607 (not z_3_29_0)))
 (=> x_3_p $x6607)))
(assert
 (let (($x6612 (not z_3_29_1)))
 (=> x_3_p $x6612)))
(assert
 (=> x_3_p z_3_29_2))
(assert
 (let (($x6622 (not z_3_29_3)))
 (=> x_3_p $x6622)))
(assert
 (=> x_3_p z_3_30_0))
(assert
 (let (($x6632 (not z_3_30_1)))
 (=> x_3_p $x6632)))
(assert
 (let (($x6637 (not z_3_30_2)))
 (=> x_3_p $x6637)))
(assert
 (=> x_3_p z_3_30_3))
(assert
 (let (($x6647 (not z_3_30_4)))
 (=> x_3_p $x6647)))
(assert
 (=> x_3_p z_3_30_5))
(assert
 (=> x_3_p z_3_31_0))
(assert
 (=> x_3_p z_3_31_1))
(assert
 (let (($x6667 (not z_3_31_2)))
 (=> x_3_p $x6667)))
(assert
 (=> x_3_p z_3_31_3))
(assert
 (let (($x6677 (not z_3_31_4)))
 (=> x_3_p $x6677)))
(assert
 (let (($x6682 (not z_3_32_0)))
 (=> x_3_p $x6682)))
(assert
 (=> x_3_p z_3_32_1))
(assert
 (let (($x6692 (not z_3_32_2)))
 (=> x_3_p $x6692)))
(assert
 (=> x_3_p z_3_32_3))
(assert
 (let (($x6702 (not z_3_32_4)))
 (=> x_3_p $x6702)))
(assert
 (=> x_3_p z_3_32_5))
(assert
 (let (($x6712 (not z_3_33_0)))
 (=> x_3_p $x6712)))
(assert
 (let (($x6717 (not z_3_33_1)))
 (=> x_3_p $x6717)))
(assert
 (let (($x6722 (not z_3_33_2)))
 (=> x_3_p $x6722)))
(assert
 (=> x_3_p z_3_33_3))
(assert
 (let (($x6732 (not z_3_33_4)))
 (=> x_3_p $x6732)))
(assert
 (let (($x6737 (not z_3_33_5)))
 (=> x_3_p $x6737)))
(assert
 (=> x_3_p z_3_33_6))
(assert
 (let (($x6747 (not z_3_33_7)))
 (=> x_3_p $x6747)))
(assert
 (=> x_3_p z_3_34_0))
(assert
 (=> x_3_p z_3_34_1))
(assert
 (let (($x6762 (not z_3_34_2)))
 (=> x_3_p $x6762)))
(assert
 (let (($x6767 (not z_3_34_3)))
 (=> x_3_p $x6767)))
(assert
 (=> x_3_p z_3_34_4))
(assert
 (let (($x6777 (not z_3_35_0)))
 (=> x_3_p $x6777)))
(assert
 (=> x_3_p z_3_35_1))
(assert
 (let (($x6787 (not z_3_36_0)))
 (=> x_3_p $x6787)))
(assert
 (=> x_3_p z_3_36_1))
(assert
 (=> x_3_p z_3_36_2))
(assert
 (=> x_3_p z_3_36_3))
(assert
 (let (($x6807 (not z_3_36_4)))
 (=> x_3_p $x6807)))
(assert
 (=> x_3_p z_3_37_0))
(assert
 (let (($x6817 (not z_3_37_1)))
 (=> x_3_p $x6817)))
(assert
 (let (($x6822 (not z_3_37_2)))
 (=> x_3_p $x6822)))
(assert
 (=> x_3_p z_3_37_3))
(assert
 (let (($x6832 (not z_3_37_4)))
 (=> x_3_p $x6832)))
(assert
 (=> x_3_p z_3_37_5))
(assert
 (=> x_3_p z_3_38_0))
(assert
 (=> x_3_p z_3_38_1))
(assert
 (=> x_3_p z_3_38_2))
(assert
 (=> x_3_p z_3_38_3))
(assert
 (let (($x6862 (not z_3_38_4)))
 (=> x_3_p $x6862)))
(assert
 (let (($x6867 (not z_3_39_0)))
 (=> x_3_p $x6867)))
(assert
 (let (($x6872 (not z_3_39_1)))
 (=> x_3_p $x6872)))
(assert
 (let (($x6877 (not z_3_39_2)))
 (=> x_3_p $x6877)))
(assert
 (=> x_3_p z_3_39_3))
(assert
 (=> x_3_p z_3_39_4))
(assert
 (let (($x6892 (not z_3_39_5)))
 (=> x_3_p $x6892)))
(assert
 (let (($x6897 (not z_3_39_6)))
 (=> x_3_p $x6897)))
(assert
 (let (($x6902 (not z_3_40_0)))
 (=> x_3_p $x6902)))
(assert
 (let (($x6907 (not z_3_40_1)))
 (=> x_3_p $x6907)))
(assert
 (let (($x6912 (not z_3_40_2)))
 (=> x_3_p $x6912)))
(assert
 (=> x_3_p z_3_40_3))
(assert
 (=> x_3_p z_3_40_4))
(assert
 (=> x_3_p z_3_40_5))
(assert
 (let (($x6932 (not z_3_40_6)))
 (=> x_3_p $x6932)))
(assert
 (let (($x6937 (not z_3_40_7)))
 (=> x_3_p $x6937)))
(assert
 (=> x_3_p z_3_41_0))
(assert
 (let (($x6947 (not z_3_41_1)))
 (=> x_3_p $x6947)))
(assert
 (let (($x6952 (not z_3_41_2)))
 (=> x_3_p $x6952)))
(assert
 (let (($x6957 (not z_3_41_3)))
 (=> x_3_p $x6957)))
(assert
 (=> x_3_p z_3_41_4))
(assert
 (=> x_3_p z_3_41_5))
(assert
 (=> x_3_p z_3_42_0))
(assert
 (let (($x6977 (not z_3_42_1)))
 (=> x_3_p $x6977)))
(assert
 (let (($x6982 (not z_3_42_2)))
 (=> x_3_p $x6982)))
(assert
 (let (($x6987 (not z_3_42_3)))
 (=> x_3_p $x6987)))
(assert
 (=> x_3_p z_3_42_4))
(assert
 (=> x_3_p z_3_42_5))
(assert
 (=> x_3_p z_3_43_0))
(assert
 (=> x_3_p z_3_43_1))
(assert
 (let (($x7012 (not z_3_43_2)))
 (=> x_3_p $x7012)))
(assert
 (let (($x7017 (not z_3_43_3)))
 (=> x_3_p $x7017)))
(assert
 (let (($x7022 (not z_3_44_0)))
 (=> x_3_p $x7022)))
(assert
 (=> x_3_p z_3_44_1))
(assert
 (let (($x7032 (not z_3_44_2)))
 (=> x_3_p $x7032)))
(assert
 (=> x_3_p z_3_45_0))
(assert
 (let (($x7042 (not z_3_45_1)))
 (=> x_3_p $x7042)))
(assert
 (let (($x7047 (not z_3_45_2)))
 (=> x_3_p $x7047)))
(assert
 (=> x_3_p z_3_45_3))
(assert
 (let (($x7057 (not z_3_46_0)))
 (=> x_3_p $x7057)))
(assert
 (=> x_3_p z_3_46_1))
(assert
 (let (($x7067 (not z_3_47_0)))
 (=> x_3_p $x7067)))
(assert
 (=> x_3_p z_3_47_1))
(assert
 (let (($x7077 (not z_3_47_2)))
 (=> x_3_p $x7077)))
(assert
 (=> x_3_p z_3_48_0))
(assert
 (let (($x7087 (not z_3_48_1)))
 (=> x_3_p $x7087)))
(assert
 (let (($x7092 (not z_3_48_2)))
 (=> x_3_p $x7092)))
(assert
 (=> x_3_p z_3_48_3))
(assert
 (=> x_3_p z_3_49_0))
(assert
 (=> x_3_p z_3_49_1))
(assert
 (=> x_3_p z_3_49_2))
(assert
 (let (($x7117 (not z_3_49_3)))
 (=> x_3_p $x7117)))
(assert
 (or x_3_p))
(assert
 (let (($x7139 (not x_3_->)))
 (let (($x7137 (not x_3_U)))
 (let (($x7135 (not x_3_v)))
 (let (($x7133 (not x_3_&)))
 (let (($x7131 (not x_3_X)))
 (let (($x7129 (not x_3_!)))
 (let (($x7127 (not x_3_F)))
 (let (($x7125 (not x_3_G)))
 (and $x7125 $x7127 $x7129 $x7131 $x7133 $x7135 $x7137 $x7139))))))))))
(check-sat)

